data;

set bondName := A D;
#set bondType := Muni Ag G G;
set govAndAg := D;

param numberBonds :=5;

param yearsToMaturity :=
A		9
D		3;

param afterTaxYield :=
A		0.043
D		0.022;

param qualityControl :=
A		2
D		1;

param beforeTaxYield :=
A		0.043
D		0.044;